certificates/rado_a7_c75_N13.cnf
c Rad2 upper bound instance: x1 + 7*x2 - x3 = 75, interval [1,13]
p cnf 13 48
1 3 11 0
-1 -3 -11 0
1 10 12 0
-1 -10 -12 0
2 4 11 0
-2 -4 -11 0
2 11 12 0
-2 -11 -12 0
3 5 11 0
-3 -5 -11 0
3 12 0
-3 -12 0
4 6 11 0
-4 -6 -11 0
4 12 13 0
-4 -12 -13 0
5 7 11 0
-5 -7 -11 0
1 6 10 0
-1 -6 -10 0
6 8 11 0
-6 -8 -11 0
2 7 10 0
-2 -7 -10 0
7 9 11 0
-7 -9 -11 0
3 8 10 0
-3 -8 -10 0
8 10 11 0
-8 -10 -11 0
4 9 10 0
-4 -9 -10 0
9 11 0
-9 -11 0
5 10 0
-5 -10 0
10 11 12 0
-10 -11 -12 0
6 10 11 0
-6 -10 -11 0
11 13 0
-11 -13 0
7 10 12 0
-7 -10 -12 0
1 9 13 0
-1 -9 -13 0
8 10 13 0
-8 -10 -13 0
