certificates/rado_a7_c75_N13.drat
12 11 0
d 2 12 11 0
1 11 0
d 3 1 11 0
-13 0
11 0
-9 0
1 0
-3 0
12 0
-10 0
-2 0
5 0
8 0
7 0
4 0
0
